max: -2.0v1 + 3.0v3  - 3.0v4  - 2.0v5  - 6.0v6 + 1.0v7 + 1.0v8 + 2.0v9  - 5.0v11 + 4.0v12 + 2.0v13 + 1.0v14  - 1.0v16 + 2.0v17  - 7.0v18  - 5.0v19 + 2.0v20 + 2.0v21 + 1.0v22  - 2.0v23 + 1.0v24  - 1.0v25 + 1.0v26 + 3.0v27  - 3.0v28  - 5.0v29 + 2.0v30 + 11.0v31  - 6.0v32  - 2.0v33  - 3.0v34 + 3.0v35 + 1.0v36  - 4.0v37 + 2.0v38 + 1.0v39  - 1.0v40 + 3.0v41  - 3.0v42  - 3.0v43 + 1.0v44  - 6.0v47 + 1.0v48 + 3.0v50;

1 - v11 + v38 + 1 - v43 >= 0;
v7 + v42 + v17 >= 0;
v44 + 1 - v13 + 1 - v47 >= 0;
1 - v6 + v8 + v35 >= 0;
1 - v28 + 1 - v6 + 1 - v23 >= 0;
1 - v34 + 1 - v4 + 1 - v25 >= 0;
v6 + v1 + 1 - v28 >= 0;
v25 + 1 - v16 + 1 - v2 >= 0;
1 - v5 + v41 + v40 >= 0;
v10 + v24 + v37 >= 0;
v40 + v20 + 1 - v47 >= 0;
1 - v21 + 1 - v15 + v11 >= 0;
1 - v18 + 1 - v2 + 1 - v39 >= 0;
v28 + v4 + 1 - v33 >= 0;
1 - v20 + v46 + v33 >= 0;
1 - v15 + 1 - v32 + 1 - v2 >= 0;
1 - v1 + 1 - v10 + 1 - v47 >= 0;
v13 + 1 - v48 + 1 - v49 >= 0;
1 - v44 + v13 + v2 >= 0;
v22 + v43 + 1 - v19 >= 0;
v10 + v33 + v11 >= 0;
1 - v47 + v13 + v16 >= 0;
1 - v40 + v20 + 1 - v10 >= 0;
1 - v36 + 1 - v14 + 1 - v7 >= 0;
1 - v10 + v12 + 1 - v21 >= 0;
v7 + 1 - v26 + 1 - v21 >= 0;
1 - v24 + 1 - v33 + v46 >= 0;
v2 + v15 + 1 - v23 >= 0;
v5 + v38 + 1 - v6 >= 0;
v40 + v33 + v8 >= 0;
v48 + 1 - v17 + 1 - v50 >= 0;
1 - v1 + 1 - v8 + 1 - v19 >= 0;
v50 + v49 + v9 >= 0;
v14 + v15 + v48 >= 0;
v16 + v15 + v4 >= 0;
1 - v47 + 1 - v22 + v30 >= 0;
1 - v32 + 1 - v41 + v22 >= 0;
v44 + v36 + 1 - v18 >= 0;
v13 + 1 - v21 + v42 >= 0;
1 - v32 + 1 - v5 + v31 >= 0;
1 - v49 + v25 + v26 >= 0;
v42 + v3 + 1 - v6 >= 0;
1 - v33 + 1 - v46 + 1 - v29 >= 0;
v27 + v10 + 1 - v6 >= 0;
v34 + 1 - v2 + 1 - v50 >= 0;
1 - v19 + v36 + v2 >= 0;
v10 + v6 + 1 - v25 >= 0;
1 - v8 + v1 + v21 >= 0;
1 - v22 + 1 - v27 + 1 - v28 >= 0;
v22 + 1 - v29 + 1 - v50 >= 0;
1 - v49 + v11 + 1 - v22 >= 0;
1 - v22 + 1 - v15 + v41 >= 0;
1 - v22 + v38 + v10 >= 0;
1 - v11 + v46 + 1 - v37 >= 0;
1 - v35 + v45 + v10 >= 0;
1 - v20 + v14 + v13 >= 0;
v27 + 1 - v35 + v32 >= 0;
1 - v26 + 1 - v2 + v49 >= 0;
1 - v46 + 1 - v4 + 1 - v18 >= 0;
v14 + v27 + 1 - v35 >= 0;
1 - v24 + v31 + 1 - v14 >= 0;
1 - v3 + v49 + 1 - v11 >= 0;
1 - v45 + 1 - v41 + 1 - v43 >= 0;
1 - v16 + v22 + 1 - v40 >= 0;
v24 + 1 - v17 + v9 >= 0;
v9 + 1 - v13 + v50 >= 0;
v48 + 1 - v1 + 1 - v20 >= 0;
1 - v49 + v30 + v25 >= 0;
v27 + v39 + 1 - v22 >= 0;
v49 + v47 + 1 - v42 >= 0;
v26 + 1 - v14 + 1 - v43 >= 0;
v46 + 1 - v33 + 1 - v42 >= 0;
v50 + 1 - v40 + 1 - v6 >= 0;
1 - v25 + v7 + 1 - v18 >= 0;
1 - v22 + 1 - v37 + 1 - v14 >= 0;
1 - v4 + 1 - v5 + 1 - v37 >= 0;
1 - v23 + v22 + 1 - v19 >= 0;
1 - v37 + 1 - v2 + 1 - v11 >= 0;
v39 + 1 - v48 + v31 >= 0;
v35 + v25 + v16 >= 0;
1 - v16 + v21 + v47 >= 0;
v17 + 1 - v33 + 1 - v43 >= 0;
v41 + 1 - v47 + v39 >= 0;
1 - v37 + v17 + v18 >= 0;
1 - v14 + 1 - v30 + 1 - v36 >= 0;
1 - v42 + v17 + v35 >= 0;
v9 + 1 - v8 + 1 - v5 >= 0;
1 - v50 + v35 + 1 - v47 >= 0;
v44 + 1 - v21 + v50 >= 0;
v37 + 1 - v5 + v12 >= 0;
1 - v18 + v41 + 1 - v38 >= 0;
v3 + v14 + 1 - v42 >= 0;
1 - v5 + 1 - v45 + v34 >= 0;
1 - v26 + 1 - v18 + 1 - v16 >= 0;
1 - v35 + 1 - v49 + 1 - v39 >= 0;
1 - v49 + v16 + 1 - v29 >= 0;
v24 + v13 + v49 >= 0;
v3 + v23 + v36 >= 0;
1 - v30 + v18 + v17 >= 0;
v12 + v10 + 1 - v40 >= 0;
1 - v7 + 1 - v25 + v43 >= 0;
v46 + 1 - v41 + 1 - v32 >= 0;
1 - v36 + v1 + v20 >= 0;
1 - v19 + 1 - v37 + v46 >= 0;
1 - v40 + v28 + v15 >= 0;
v22 + v12 + 1 - v13 >= 0;
v2 + 1 - v44 + 1 - v11 >= 0;
1 - v1 + 1 - v43 + 1 - v14 >= 0;
v8 + 1 - v12 + v20 >= 0;
v11 + 1 - v31 + 1 - v34 >= 0;
v45 + v50 + v1 >= 0;
1 - v37 + v7 + 1 - v47 >= 0;
v41 + v22 + v31 >= 0;
v38 + v19 + 1 - v36 >= 0;
1 - v15 + v32 + 1 - v8 >= 0;
1 - v37 + v1 + 1 - v36 >= 0;
1 - v42 + 1 - v45 + v47 >= 0;
v27 + 1 - v32 + 1 - v39 >= 0;
v31 + 1 - v24 + 1 - v18 >= 0;
v43 + 1 - v45 + 1 - v21 >= 0;
v36 + v30 + 1 - v28 >= 0;
v11 + 1 - v8 + v31 >= 0;
v25 + 1 - v23 + 1 - v4 >= 0;
1 - v13 + 1 - v12 + 1 - v14 >= 0;
1 - v19 + v21 + 1 - v39 >= 0;
1 - v17 + 1 - v6 + 1 - v10 >= 0;
v31 + 1 - v38 + 1 - v35 >= 0;
1 - v34 + 1 - v20 + 1 - v4 >= 0;
1 - v28 + 1 - v46 + v45 >= 0;
v34 + 1 - v45 + v42 >= 0;
v3 + 1 - v1 + 1 - v18 >= 0;
v39 + 1 - v26 + 1 - v33 >= 0;
v4 + v21 + 1 - v48 >= 0;
1 - v41 + 1 - v36 + v26 >= 0;
1 - v7 + 1 - v10 + 1 - v46 >= 0;
1 - v10 + 1 - v34 + v30 >= 0;
v22 + v35 + 1 - v1 >= 0;
1 - v32 + v12 + v10 >= 0;
1 - v9 + 1 - v10 + 1 - v3 >= 0;
1 - v36 + 1 - v1 + v37 >= 0;
1 - v11 + 1 - v9 + 1 - v2 >= 0;
v16 + v8 + 1 - v32 >= 0;
v5 + v44 + v1 >= 0;
v31 + v30 + v33 >= 0;
1 - v1 + v25 + v47 >= 0;
1 - v43 + v32 + v16 >= 0;
v49 + 1 - v26 + 1 - v44 >= 0;
1 - v19 + v31 + v34 >= 0;
1 - v13 + v33 + v46 >= 0;
1 - v49 + v31 + v3 >= 0;
v24 + v36 + 1 - v32 >= 0;
v5 + v28 + v38 >= 0;
v38 + 1 - v46 + v3 >= 0;
1 - v32 + 1 - v30 + 1 - v38 >= 0;
1 - v33 + v26 + 1 - v25 >= 0;
1 - v1 + 1 - v29 + v14 >= 0;
v27 + v39 + v44 >= 0;
1 - v34 + v45 + v4 >= 0;
1 - v41 + v46 + v31 >= 0;
1 - v22 + 1 - v5 + 1 - v33 >= 0;
1 - v25 + v40 + v17 >= 0;
1 - v4 + v49 + 1 - v40 >= 0;
v6 + 1 - v47 + v41 >= 0;
1 - v11 + v23 + v50 >= 0;
1 - v48 + v23 + v26 >= 0;
1 - v18 + 1 - v43 + 1 - v4 >= 0;
v35 + 1 - v34 + 1 - v25 >= 0;
v21 + 1 - v37 + v34 >= 0;
v16 + 1 - v7 + 1 - v38 >= 0;
v37 + 1 - v46 + 1 - v11 >= 0;
1 - v27 + 1 - v43 + v22 >= 0;
1 - v7 + 1 - v12 + v35 >= 0;
v20 + v8 + 1 - v3 >= 0;
v19 + v35 + v5 >= 0;
v44 + 1 - v37 + v48 >= 0;
v33 + v26 + 1 - v16 >= 0;
1 - v6 + 1 - v13 + 1 - v5 >= 0;
v7 + v13 + v48 >= 0;
v7 + 1 - v34 + v2 >= 0;
v14 + 1 - v34 + 1 - v38 >= 0;
1 - v34 + v21 + v13 >= 0;
v42 + v31 + 1 - v47 >= 0;
1 - v28 + v37 + v34 >= 0;
v43 + v36 + v2 >= 0;
1 - v18 + 1 - v8 + 1 - v41 >= 0;
v12 + 1 - v16 + v41 >= 0;
1 - v4 + 1 - v20 + v40 >= 0;
v36 + v18 + v1 >= 0;
v20 + 1 - v46 + v38 >= 0;
v24 + 1 - v17 + v20 >= 0;
1 - v42 + v7 + v31 >= 0;
v41 + 1 - v21 + 1 - v31 >= 0;
1 - v6 + v49 + 1 - v45 >= 0;
v45 + 1 - v49 + 1 - v34 >= 0;
v40 + v14 + 1 - v15 >= 0;
1 - v46 + 1 - v16 + 1 - v11 >= 0;
1 - v20 + v5 + v21 >= 0;
1 - v44 + v30 + v1 >= 0;
v34 + 1 - v1 + v17 >= 0;
v7 + v12 + v27 >= 0;
1 - v7 + v36 + 1 - v17 >= 0;
v4 + 1 - v23 + v18 >= 0;
1 - v47 + 1 - v27 + v19 >= 0;
1 - v18 + 1 - v32 + v22 >= 0;
v47 + v5 + v32 >= 0;
1 - v29 + v21 + v38 >= 0;
v43 + v8 + v29 >= 0;
1 - v29 + 1 - v7 + 1 - v2 >= 0;
1 - v19 + 1 - v10 + v15 >= 0;
1 - v11 + v41 + 1 - v18 >= 0;
1 - v44 + 1 - v42 + v2 >= 0;
v37 + 1 - v30 + v14 >= 0;
1 - v40 + v18 + v32 >= 0;
1 - v24 + v34 + 1 - v32 >= 0;
v2 + 1 - v34 + 1 - v16 >= 0;
v50 + v20 + v21 >= 0;
v8 + 1 - v38 + 1 - v22 >= 0;
1 - v42 + v45 + 1 - v27 >= 0;
0 <= v1 <= 1;
0 <= v2 <= 1;
0 <= v3 <= 1;
0 <= v4 <= 1;
0 <= v5 <= 1;
0 <= v6 <= 1;
0 <= v7 <= 1;
0 <= v8 <= 1;
0 <= v9 <= 1;
0 <= v10 <= 1;
0 <= v11 <= 1;
0 <= v12 <= 1;
0 <= v13 <= 1;
0 <= v14 <= 1;
0 <= v15 <= 1;
0 <= v16 <= 1;
0 <= v17 <= 1;
0 <= v18 <= 1;
0 <= v19 <= 1;
0 <= v20 <= 1;
0 <= v21 <= 1;
0 <= v22 <= 1;
0 <= v23 <= 1;
0 <= v24 <= 1;
0 <= v25 <= 1;
0 <= v26 <= 1;
0 <= v27 <= 1;
0 <= v28 <= 1;
0 <= v29 <= 1;
0 <= v30 <= 1;
0 <= v31 <= 1;
0 <= v32 <= 1;
0 <= v33 <= 1;
0 <= v34 <= 1;
0 <= v35 <= 1;
0 <= v36 <= 1;
0 <= v37 <= 1;
0 <= v38 <= 1;
0 <= v39 <= 1;
0 <= v40 <= 1;
0 <= v41 <= 1;
0 <= v42 <= 1;
0 <= v43 <= 1;
0 <= v44 <= 1;
0 <= v45 <= 1;
0 <= v46 <= 1;
0 <= v47 <= 1;
0 <= v48 <= 1;
0 <= v49 <= 1;
0 <= v50 <= 1;
